
Gurobi 11.0.1 (win64) logging started Sun Mar 17 23:46:54 2024

Set parameter LogFile to value "res/logfile/lectsched-5-objlog.txt"
Gurobi Optimizer version 11.0.1 build v11.0.1rc0 (win64 - Windows 11.0 (22621.2))

CPU model: AMD Ryzen Threadripper PRO 5975WX 32-Cores, instruction set [SSE2|AVX|AVX2]
Thread count: 32 physical cores, 64 logical processors, using up to 10 threads

Optimize a model with 38697 rows, 21805 columns and 240962 nonzeros
Model fingerprint: 0x75e3bf74
Variable types: 0 continuous, 21805 integer (21389 binary)
Coefficient statistics:
  Matrix range     [1e+00, 1e+03]
  Objective range  [1e+00, 1e+00]
  Bounds range     [1e+00, 2e+01]
  RHS range        [1e+00, 3e+03]
Presolve removed 30674 rows and 17257 columns
Presolve time: 0.31s
Presolved: 8023 rows, 4548 columns, 41685 nonzeros
Variable types: 0 continuous, 4548 integer (4380 binary)

Root relaxation: objective 1.383333e+01, 1840 iterations, 0.02 seconds (0.03 work units)

    Nodes    |    Current Node    |     Objective Bounds      |     Work
 Expl Unexpl |  Obj  Depth IntInf | Incumbent    BestBd   Gap | It/Node Time

     0     0   13.83333    0   58          -   13.83333      -     -    0s
H    0     0                      43.0000000   15.00000  65.1%     -    0s
     0     0   15.00000    0   94   43.00000   15.00000  65.1%     -    0s
H    0     0                      42.0000000   15.00000  64.3%     -    0s
     0     0   15.00000    0  102   42.00000   15.00000  64.3%     -    0s
     0     0   15.00000    0  104   42.00000   15.00000  64.3%     -    0s
     0     0   15.01734    0  155   42.00000   15.01734  64.2%     -    0s
     0     0   15.50000    0  120   42.00000   15.50000  63.1%     -    0s
     0     0   15.50000    0  111   42.00000   15.50000  63.1%     -    0s
H    0     0                      41.0000000   15.50000  62.2%     -    1s
     0     0   16.00000    0  179   41.00000   16.00000  61.0%     -    1s
H    0     0                      37.0000000   16.00000  56.8%     -    1s
     0     0   16.00000    0  118   37.00000   16.00000  56.8%     -    1s
     0     0   16.00000    0  121   37.00000   16.00000  56.8%     -    1s
     0     0   16.00000    0  111   37.00000   16.00000  56.8%     -    1s
     0     0   16.06614    0   83   37.00000   16.06614  56.6%     -    1s
H    0     0                      33.0000000   16.10000  51.2%     -    1s
     0     0   16.27810    0  130   33.00000   16.27810  50.7%     -    1s
     0     0   16.28074    0  116   33.00000   16.28074  50.7%     -    1s
     0     0   16.28074    0  127   33.00000   16.28074  50.7%     -    1s
     0     0   16.83333    0  116   33.00000   16.83333  49.0%     -    1s
     0     0   16.83333    0  109   33.00000   16.83333  49.0%     -    1s
     0     0   17.50000    0  109   33.00000   17.50000  47.0%     -    1s
     0     0   17.50000    0   74   33.00000   17.50000  47.0%     -    1s
     0     0   17.52885    0  172   33.00000   17.52885  46.9%     -    1s
     0     0   17.55233    0  153   33.00000   17.55233  46.8%     -    1s
     0     0   17.55233    0  174   33.00000   17.55233  46.8%     -    1s
     0     0   17.55233    0  172   33.00000   17.55233  46.8%     -    1s
     0     0   17.58504    0  238   33.00000   17.58504  46.7%     -    1s
     0     0   17.58504    0  165   33.00000   17.58504  46.7%     -    1s
     0     0   17.58504    0  173   33.00000   17.58504  46.7%     -    2s
     0     0   17.66667    0  174   33.00000   17.66667  46.5%     -    2s
     0     0   17.66667    0  181   33.00000   17.66667  46.5%     -    2s
     0     0   17.66667    0  159   33.00000   17.66667  46.5%     -    2s
     0     0   17.66667    0  189   33.00000   17.66667  46.5%     -    2s
     0     0   17.66667    0  189   33.00000   17.66667  46.5%     -    2s
     0     0   17.70000    0  250   33.00000   17.70000  46.4%     -    2s
     0     0   17.70000    0  237   33.00000   17.70000  46.4%     -    2s
     0     0   17.70000    0  268   33.00000   17.70000  46.4%     -    2s
     0     0   17.70000    0  252   33.00000   17.70000  46.4%     -    2s
     0     0   17.73077    0  119   33.00000   17.73077  46.3%     -    2s
     0     0   17.77778    0  161   33.00000   17.77778  46.1%     -    2s
     0     0   18.00000    0  125   33.00000   18.00000  45.5%     -    2s
     0     0   18.00000    0  163   33.00000   18.00000  45.5%     -    2s
     0     0   18.00000    0  152   33.00000   18.00000  45.5%     -    3s
     0     0   18.00000    0  125   33.00000   18.00000  45.5%     -    3s
     0     0   18.00000    0   97   33.00000   18.00000  45.5%     -    3s
     0     0   18.00000    0  149   33.00000   18.00000  45.5%     -    3s
     0     0   18.00000    0   97   33.00000   18.00000  45.5%     -    3s
     0     0   18.00000    0   91   33.00000   18.00000  45.5%     -    3s
     0     2   18.50000    0   74   33.00000   18.50000  43.9%     -    3s
H   41    43                      31.0000000   18.50000  40.3%   231    4s
H   81    84                      27.0000000   18.50000  31.5%   142    4s
   443   359   18.95370    7  122   27.00000   18.50000  31.5%  55.7    5s
H 1651   846                      26.0000000   18.80263  27.7%  31.5    6s
* 2206   798              84      25.0000000   19.20370  23.2%  29.6    7s
  3524  1120   22.50000   16  111   25.00000   19.82828  20.7%  33.0   10s
  4028  1204   21.20000   13  222   25.00000   21.20000  15.2%  33.5   15s
H 4639  1050                      24.0000000   22.06588  8.06%  49.7   19s

Cutting planes:
  Learned: 31
  Gomory: 126
  Cover: 485
  Implied bound: 34
  Projected implied bound: 3
  Clique: 28
  MIR: 592
  StrongCG: 101
  Flow cover: 465
  Inf proof: 4
  Zero half: 170
  RLT: 73
  Relax-and-lift: 40

Explored 4753 nodes (251830 simplex iterations) in 20.16 seconds (19.61 work units)
Thread count was 10 (of 64 available processors)

Solution count 10: 24 25 26 ... 43

Optimal solution found (tolerance 1.00e-04)
Best objective 2.400000000000e+01, best bound 2.400000000000e+01, gap 0.0000%

User-callback calls 11419, time in user-callback 0.00 sec
